SDVRP instances/p01/p01_7090_tsplib0_splitx10_0.vrp
NAME:.\SDVRP_splitx10_
BEST_KNOWN: 0
COMMENT: 0
DIMENSION: 354
CAPACITY: 1600
EDGE_WEIGHT_FORMAT: FUNCTION
EDGE_WEIGHT_TYPE: EXACT_2D
NODE_COORD_SECTION
1 0.00000 0.00000
2 7 12
3 7 12
4 7 12
5 7 12
6 7 12
7 7 12
8 7 12
9 19 9
10 19 9
11 19 9
12 19 9
13 19 9
14 19 9
15 19 9
16 19 9
17 22 24
18 22 24
19 22 24
20 22 24
21 22 24
22 22 24
23 22 24
24 22 24
25 22 24
26 -10 -14
27 -10 -14
28 -10 -14
29 -10 -14
30 -10 -14
31 10 -10
32 10 -10
33 10 -10
34 10 -10
35 10 -10
36 10 -10
37 10 -10
38 10 -10
39 10 -10
40 -9 7
41 -9 7
42 -9 7
43 -9 7
44 -9 7
45 -9 7
46 -9 7
47 -13 23
48 -13 23
49 -13 23
50 -13 23
51 -13 23
52 -13 23
53 -13 23
54 -13 23
55 -13 23
56 -13 23
57 1 22
58 1 22
59 1 22
60 1 22
61 1 22
62 1 22
63 22 -7
64 22 -7
65 22 -7
66 22 -7
67 22 -7
68 22 -7
69 22 -7
70 22 -7
71 21 -19
72 21 -19
73 21 -19
74 21 -19
75 21 -19
76 12 1
77 12 1
78 12 1
79 12 1
80 12 1
81 12 1
82 1 -8
83 1 -8
84 1 -8
85 1 -8
86 1 -8
87 1 -8
88 1 -8
89 1 -8
90 -25 -15
91 -25 -15
92 -25 -15
93 -25 -15
94 -25 -15
95 -25 -15
96 -25 -15
97 -25 -15
98 -25 -15
99 -18 2
100 -18 2
101 -18 2
102 -18 2
103 6 -24
104 6 -24
105 6 -24
106 6 -24
107 6 -24
108 6 -24
109 6 -24
110 6 -24
111 22 1
112 22 1
113 22 1
114 22 1
115 22 1
116 22 1
117 -3 -17
118 -3 -17
119 -3 -17
120 -3 -17
121 -3 -17
122 -3 -17
123 -13 -7
124 -13 -7
125 -13 -7
126 -13 -7
127 -17 -27
128 -17 -27
129 -17 -27
130 -17 -27
131 -17 -27
132 -17 -27
133 -17 -27
134 27 18
135 27 18
136 27 18
137 27 18
138 27 18
139 32 2
140 32 2
141 32 2
142 32 2
143 32 2
144 32 2
145 12 17
146 12 17
147 12 17
148 12 17
149 12 17
150 12 17
151 12 17
152 -14 17
153 -14 17
154 -14 17
155 -14 17
156 -14 17
157 -14 17
158 -14 17
159 -22 12
160 -22 12
161 -22 12
162 -22 12
163 -22 12
164 -22 12
165 -23 -2
166 -23 -2
167 -23 -2
168 -23 -2
169 -23 -2
170 -23 -2
171 -3 28
172 -3 28
173 -3 28
174 -3 28
175 -3 28
176 -3 28
177 -3 28
178 -3 28
179 -3 28
180 0 8
181 0 8
182 0 8
183 0 8
184 0 8
185 13 27
186 13 27
187 13 27
188 13 27
189 13 27
190 28 8
191 28 8
192 28 8
193 28 8
194 28 8
195 28 8
196 28 8
197 28 -13
198 28 -13
199 28 -13
200 28 -13
201 28 -13
202 28 -13
203 7 29
204 7 29
205 7 29
206 7 29
207 7 29
208 7 29
209 7 29
210 8 6
211 8 6
212 8 6
213 8 6
214 8 6
215 8 6
216 16 -30
217 16 -30
218 16 -30
219 16 -30
220 16 -30
221 16 -30
222 16 -30
223 31 -7
224 31 -7
225 31 -7
226 31 -7
227 31 -7
228 31 -7
229 31 -7
230 31 -7
231 32 23
232 32 23
233 32 23
234 32 23
235 32 23
236 32 23
237 32 23
238 33 29
239 33 29
240 33 29
241 33 29
242 33 29
243 33 29
244 33 29
245 33 29
246 33 29
247 33 29
248 2 -18
249 2 -18
250 2 -18
251 2 -18
252 2 -18
253 15 -5
254 15 -5
255 15 -5
256 15 -5
257 15 -5
258 15 -5
259 15 -5
260 15 -5
261 15 -5
262 15 -5
263 29 -25
264 29 -25
265 29 -25
266 29 -25
267 29 -25
268 29 -25
269 29 -25
270 29 -25
271 29 -25
272 29 -25
273 -25 -34
274 -25 -34
275 -25 -34
276 -25 -34
277 -25 -34
278 -25 -34
279 -25 -34
280 -20 -23
281 -20 -23
282 -20 -23
283 -20 -23
284 -20 -23
285 -20 -23
286 -20 -23
287 -20 -23
288 -9 -30
289 -9 -30
290 -9 -30
291 -9 -30
292 -9 -30
293 -9 -30
294 -25 24
295 -25 24
296 -25 24
297 -25 24
298 -25 24
299 -25 24
300 -25 24
301 0 -25
302 0 -25
303 0 -25
304 0 -25
305 0 -25
306 0 -25
307 0 -25
308 0 -25
309 9 -30
310 9 -30
311 9 -30
312 9 -30
313 9 -30
314 9 -30
315 9 -30
316 9 -30
317 2 -1
318 2 -1
319 2 -1
320 2 -1
321 2 -1
322 2 -1
323 -5 -8
324 -5 -8
325 -5 -8
326 -5 -8
327 -5 -8
328 -5 -8
329 -5 -8
330 -5 -8
331 -5 -8
332 -5 -8
333 -5 15
334 -5 15
335 -5 15
336 -5 15
337 -5 15
338 -5 15
339 -5 15
340 -5 15
341 -5 15
342 18 -12
343 18 -12
344 18 -12
345 18 -12
346 18 -12
347 18 -12
348 18 -12
349 26 -3
350 26 -3
351 26 -3
352 26 -3
353 26 -3
354 26 -3
DEMAND_SECTION
1 0
2 320
3 320
4 320
5 320
6 80
7 16
8 14
9 320
10 320
11 320
12 160
13 80
14 16
15 16
16 8
17 320
18 320
19 320
20 160
21 16
22 16
23 16
24 16
25 6
26 320
27 320
28 320
29 320
30 10
31 320
32 320
33 320
34 320
35 80
36 16
37 16
38 16
39 2
40 320
41 320
42 320
43 320
44 80
45 16
46 14
47 320
48 320
49 320
50 160
51 80
52 16
53 16
54 16
55 16
56 6
57 320
58 320
59 320
60 160
61 16
62 14
63 320
64 320
65 320
66 160
67 16
68 16
69 16
70 12
71 320
72 320
73 320
74 160
75 10
76 320
77 320
78 320
79 320
80 80
81 10
82 320
83 320
84 320
85 160
86 80
87 16
88 16
89 8
90 320
91 320
92 320
93 160
94 80
95 16
96 16
97 16
98 12
99 320
100 320
101 320
102 320
103 320
104 320
105 320
106 320
107 16
108 16
109 16
110 12
111 320
112 320
113 320
114 160
115 80
116 10
117 320
118 320
119 320
120 160
121 16
122 4
123 320
124 320
125 320
126 320
127 320
128 320
129 320
130 320
131 80
132 16
133 14
134 320
135 320
136 320
137 320
138 10
139 320
140 320
141 320
142 160
143 16
144 14
145 320
146 320
147 320
148 320
149 16
150 16
151 8
152 320
153 320
154 320
155 320
156 16
157 16
158 8
159 320
160 320
161 320
162 320
163 16
164 4
165 320
166 320
167 320
168 320
169 80
170 10
171 320
172 320
173 320
174 320
175 16
176 16
177 16
178 16
179 6
180 320
181 320
182 320
183 160
184 10
185 320
186 320
187 320
188 320
189 80
190 320
191 320
192 320
193 160
194 16
195 16
196 8
197 320
198 320
199 320
200 160
201 16
202 14
203 320
204 320
205 320
206 320
207 80
208 16
209 14
210 320
211 320
212 320
213 320
214 80
215 10
216 320
217 320
218 320
219 320
220 80
221 16
222 4
223 320
224 320
225 320
226 160
227 16
228 16
229 16
230 12
231 320
232 320
233 320
234 320
235 80
236 16
237 14
238 320
239 320
240 320
241 160
242 80
243 16
244 16
245 16
246 16
247 6
248 320
249 320
250 320
251 320
252 80
253 320
254 320
255 320
256 160
257 80
258 16
259 16
260 16
261 16
262 6
263 320
264 320
265 320
266 160
267 80
268 16
269 16
270 16
271 16
272 6
273 320
274 320
275 320
276 320
277 80
278 16
279 4
280 320
281 320
282 320
283 160
284 16
285 16
286 16
287 12
288 320
289 320
290 320
291 160
292 16
293 4
294 320
295 320
296 320
297 320
298 16
299 16
300 8
301 320
302 320
303 320
304 320
305 16
306 16
307 16
308 2
309 320
310 320
311 320
312 320
313 80
314 16
315 16
316 8
317 320
318 320
319 320
320 160
321 80
322 10
323 320
324 320
325 320
326 160
327 80
328 16
329 16
330 16
331 16
332 6
333 320
334 320
335 320
336 160
337 80
338 16
339 16
340 16
341 2
342 320
343 320
344 320
345 320
346 80
347 16
348 14
349 320
350 320
351 320
352 320
353 16
354 14
DEPOT_SECTION
1
-1
EOF