SDVRP instances/p01/p01_7090_tsplib0_splitx10_0.sol
353 -2 3 4 1 179 -6 7 5 188 202 206 204 203 207 205 208 -13 12 14 15 10 9 8 11 210 -19 21 16 22 20 23 18 24 17 148 149 150 144 -25 27 123 124 125 -26 29 279 280 281 282 284 285 283 286 -28 126 127 128 129 -30 31 32 33 317 -34 35 36 199 197 200 198 196 201 69 64 -37 38 74 73 71 70 342 347 343 345 346 -44 43 42 40 39 41 45 -46 52 48 47 53 54 55 51 50 49 332 340 -57 58 56 60 61 334 339 337 338 336 335 -59 173 176 172 175 170 174 178 171 177 -66 65 63 62 68 67 344 341 -72 270 266 271 267 269 268 264 263 265 262 -78 75 76 80 77 79 319 -85 106 109 108 107 314 313 312 315 311 308 309 310 -88 86 87 84 82 83 81 318 320 321 -92 90 91 93 89 95 97 94 96 122 -98 99 101 100 -103 105 102 104 250 -111 195 192 193 190 191 189 194 -113 115 112 349 352 348 351 353 -114 110 141 143 139 142 140 138 -116 118 249 247 248 -120 119 117 121 305 306 303 302 307 301 -131 130 132 272 276 273 275 278 277 274 -134 137 241 242 244 239 237 245 238 246 240 243 -135 133 136 145 147 -146 184 187 185 186 -151 152 153 154 333 -160 162 163 158 159 161 -165 164 166 167 168 169 -180 181 212 209 211 -182 183 155 156 157 295 298 297 299 296 294 293 -214 213 231 233 230 234 235 236 232 -216 218 221 219 220 215 217 -226 229 227 228 222 225 224 223 350 -251 304 300 288 290 287 292 289 291 -257 256 261 255 254 253 252 259 258 260 316 -325 330 329 323 324 322 326 327 331 328 0 





OBJ=
2219.620
BEST_KNOWN=
0.000